data;


param d:= 100;
param r:=5;
param p:=0.200000;
param M:=1000;
param U:=
         1         1        1.535621e+00
         2         1       -5.763833e-01
         3         1       -3.562726e-03
         4         1        9.489801e-02
         5         1        3.747719e-01
         6         1        5.546802e-01
         7         1       -1.391200e+00
         8         1        1.194767e+00
         9         1        1.408089e+00
        10         1       -6.369706e-01
        11         1       -2.831170e-01
        12         1        9.621049e-02
        13         1        1.273770e+00
        14         1       -1.370342e+00
        15         1       -3.024649e-01
        16         1       -8.647200e-01
        17         1       -4.609123e-01
        18         1       -4.321798e-01
        19         1       -4.734087e-01
        20         1       -2.812744e+00
        21         1        9.697928e-01
        22         1        3.807914e-01
        23         1       -1.082191e+00
        24         1       -5.760891e-01
        25         1       -3.048604e-01
        26         1       -5.432502e-01
        27         1       -1.729633e+00
        28         1       -5.076223e-01
        29         1       -1.851565e-01
        30         1        1.624380e+00
        31         1        1.130726e+00
        32         1        6.059769e-01
        33         1        5.660482e-01
        34         1       -5.166925e-01
        35         1        4.611934e-01
        36         1        8.024875e-02
        37         1        2.763003e-01
        38         1       -3.764954e-01
        39         1       -6.628220e-01
        40         1       -4.275899e-01
        41         1        2.414115e-02
        42         1       -6.688954e-01
        43         1       -1.080515e+00
        44         1       -8.490417e-01
        45         1        9.493214e-02
        46         1       -1.492991e-01
        47         1       -8.649936e-01
        48         1       -1.123120e-01
        49         1       -1.739304e-01
        50         1       -1.022753e+00
        51         1        3.338464e-01
        52         1       -5.941486e-01
        53         1       -1.775477e-01
        54         1        2.797644e+00
        55         1        4.946883e-01
        56         1       -3.522335e-02
        57         1        2.120944e+00
        58         1       -7.227507e-01
        59         1        3.921686e-01
        60         1        1.467770e+00
        61         1        4.614931e-01
        62         1        9.472464e-01
        63         1        7.471668e-01
        64         1        1.365554e-01
        65         1       -8.682749e-01
        66         1        3.061927e-02
        67         1       -1.124041e+00
        68         1        1.183651e+00
        69         1       -1.668479e-01
        70         1        1.316682e+00
        71         1        1.416438e+00
        72         1        7.464913e-01
        73         1        8.253721e-01
        74         1       -2.460586e-01
        75         1       -1.468335e-01
        76         1       -7.500541e-01
        77         1       -2.945931e-01
        78         1       -1.949728e+00
        79         1        5.501027e-01
        80         1       -1.047127e-01
        81         1       -8.006837e-01
        82         1       -2.671866e-01
        83         1       -4.153327e-01
        84         1       -1.444342e-01
        85         1        1.045014e+00
        86         1       -1.048872e+00
        87         1       -1.725024e-01
        88         1       -2.177301e+00
        89         1        6.102348e-01
        90         1       -3.954483e-01
        91         1       -1.545491e+00
        92         1        9.021917e-01
        93         1        1.321163e-01
        94         1        1.125224e+00
        95         1        1.070817e+00
        96         1       -9.936921e-01
        97         1       -8.022517e-01
        98         1       -1.020190e+00
        99         1        3.123192e-01
       100         1        5.137739e-02
         1         2        1.334349e+00
         2         2        1.825414e+00
         3         2        2.723224e-01
         4         2       -1.279246e+00
         5         2       -9.820371e-01
         6         2       -1.662773e+00
         7         2        8.169737e-01
         8         2        6.970917e-01
         9         2        1.237488e-01
        10         2       -3.161674e-01
        11         2        4.730299e-01
        12         2       -2.591750e-01
        13         2        6.618324e-01
        14         2        5.143078e-01
        15         2        1.016040e+00
        16         2       -2.005751e-01
        17         2       -9.505546e-01
        18         2       -7.476021e-01
        19         2        5.766215e-01
        20         2       -8.186163e-01
        21         2       -4.399983e-01
        22         2       -7.738882e-01
        23         2       -1.402155e+00
        24         2       -5.293426e-01
        25         2        5.918651e-01
        26         2        1.672209e+00
        27         2       -5.100490e-01
        28         2       -6.872325e-01
        29         2        4.938855e-01
        30         2        1.861994e+00
        31         2        1.776469e-01
        32         2       -4.852048e-01
        33         2        8.388384e-01
        34         2       -1.448125e-01
        35         2       -9.496703e-01
        36         2       -8.935874e-01
        37         2       -1.572765e+00
        38         2       -2.120020e-01
        39         2       -1.805366e-01
        40         2       -6.830140e-01
        41         2        3.962529e-01
        42         2       -1.091159e+00
        43         2        7.204747e-01
        44         2        8.023651e-02
        45         2       -4.632288e-01
        46         2       -1.412061e+00
        47         2        6.133849e-01
        48         2       -6.862419e-01
        49         2        1.409673e+00
        50         2        6.001572e-01
        51         2        8.028508e-01
        52         2       -1.657728e+00
        53         2       -1.458672e+00
        54         2       -1.431168e+00
        55         2        1.950187e+00
        56         2        2.313495e-02
        57         2       -2.495307e+00
        58         2        7.552962e-01
        59         2        1.876373e-01
        60         2       -4.503984e-02
        61         2        4.550710e-03
        62         2        2.529560e-01
        63         2       -1.256638e+00
        64         2        8.091228e-01
        65         2       -3.268641e-01
        66         2        2.739283e-02
        67         2        1.166350e-01
        68         2       -3.782132e-01
        69         2        1.382616e+00
        70         2       -4.521066e-01
        71         2       -3.321779e-01
        72         2        6.405126e-01
        73         2       -3.437416e-01
        74         2        2.047977e-01
        75         2        6.907735e-01
        76         2       -2.005757e-01
        77         2       -1.539401e+00
        78         2        5.738845e-02
        79         2       -3.551806e-01
        80         2        2.083828e+00
        81         2       -7.770130e-01
        82         2        1.081199e+00
        83         2        7.913311e-02
        84         2       -1.475901e+00
        85         2        9.016402e-02
        86         2        1.835077e-01
        87         2       -1.178154e+00
        88         2       -4.501288e-01
        89         2       -5.325016e-01
        90         2       -2.717554e+00
        91         2        1.191002e-02
        92         2       -6.749606e-01
        93         2        2.392796e-01
        94         2        9.436471e-01
        95         2        1.144688e+00
        96         2       -1.523718e-01
        97         2       -2.439896e+00
        98         2       -1.584198e+00
        99         2        1.701153e+00
       100         2        1.974512e-01
         1         3       -1.165922e+00
         2         3        7.197226e-02
         3         3        9.440375e-01
         4         3        1.931800e+00
         5         3       -1.569489e-01
         6         3        3.204373e-01
         7         3        1.054221e+00
         8         3        1.932418e-01
         9         3        2.703271e-01
        10         3        9.496499e-01
        11         3       -1.446793e+00
        12         3        6.632229e-01
        13         3       -7.603518e-01
        14         3        1.962522e+00
        15         3        2.383420e-01
        16         3        7.334369e-01
        17         3        7.975601e-01
        18         3        1.675419e+00
        19         3       -1.312832e+00
        20         3       -9.653923e-01
        21         3       -2.004937e-01
        22         3       -4.154810e-02
        23         3        1.971574e+00
        24         3       -8.660419e-01
        25         3       -5.660213e-01
        26         3       -9.536881e-01
        27         3       -7.874440e-01
        28         3        1.863196e-02
        29         3        1.513849e+00
        30         3        1.118611e+00
        31         3        3.853488e-01
        32         3       -6.300678e-01
        33         3        1.515663e+00
        34         3       -3.761494e-01
        35         3        8.789115e-02
        36         3        2.436370e-01
        37         3        5.186452e-01
        38         3       -1.072393e+00
        39         3       -5.233713e-01
        40         3       -8.044973e-01
        41         3        9.763633e-03
        42         3       -1.638633e+00
        43         3       -1.271869e+00
        44         3       -1.658640e+00
        45         3       -2.318864e+00
        46         3       -5.920940e-02
        47         3        1.145922e+00
        48         3       -1.338179e+00
        49         3        1.008113e+00
        50         3        4.513816e-01
        51         3        2.110815e+00
        52         3        3.720949e-01
        53         3        4.700512e-01
        54         3       -2.800436e+00
        55         3       -1.668951e+00
        56         3       -4.487623e-01
        57         3       -8.162776e-01
        58         3        7.630853e-01
        59         3       -5.851690e-01
        60         3       -1.071822e-01
        61         3        1.898681e+00
        62         3       -1.122385e+00
        63         3       -1.268987e+00
        64         3        6.667113e-02
        65         3       -3.415263e-01
        66         3       -9.434714e-01
        67         3       -3.046620e-01
        68         3        1.170736e+00
        69         3        1.516107e+00
        70         3        1.029991e+00
        71         3        2.883138e+00
        72         3       -6.501199e-01
        73         3        2.720428e-01
        74         3        3.464075e-01
        75         3        1.919940e+00
        76         3       -6.615620e-02
        77         3       -8.398199e-01
        78         3        2.978799e-01
        79         3       -7.450888e-01
        80         3       -5.640194e-02
        81         3        1.427581e+00
        82         3        3.413238e-01
        83         3       -1.930054e-02
        84         3       -7.316786e-01
        85         3        1.198228e+00
        86         3        7.710684e-01
        87         3       -9.911397e-01
        88         3       -2.993874e-01
        89         3       -7.704179e-01
        90         3       -1.399823e-01
        91         3       -1.541965e+00
        92         3       -3.974916e-02
        93         3       -1.874869e-02
        94         3       -2.118251e+00
        95         3       -4.881857e-01
        96         3       -1.596253e+00
        97         3        1.862614e+00
        98         3       -6.410276e-01
        99         3        4.207805e-01
       100         3        1.608917e+00
         1         4       -9.148517e-01
         2         4       -7.312505e-01
         3         4       -1.051330e+00
         4         4       -1.822684e+00
         5         4        1.308047e-01
         6         4       -2.717352e-01
         7         4       -1.466018e+00
         8         4       -9.078677e-01
         9         4       -2.190096e-01
        10         4        7.910282e-01
        11         4       -3.442049e-01
        12         4        2.775171e-01
        13         4        2.284442e-01
        14         4        1.936425e-01
        15         4        2.433590e-01
        16         4        1.405775e-01
        17         4       -4.278568e-02
        18         4        1.291672e+00
        19         4        1.490648e+00
        20         4        1.797396e+00
        21         4        1.014408e-01
        22         4       -5.677459e-01
        23         4       -2.116906e-01
        24         4        1.405588e+00
        25         4        1.256243e+00
        26         4       -7.313765e-01
        27         4       -4.161706e-02
        28         4        8.771296e-01
        29         4       -8.820000e-01
        30         4       -2.216123e-01
        31         4        1.367914e+00
        32         4       -4.736129e-01
        33         4        2.003381e+00
        34         4        5.628109e-01
        35         4       -2.687396e-01
        36         4        7.253196e-01
        37         4       -3.882546e-01
        38         4       -9.114726e-01
        39         4        6.488696e-01
        40         4       -2.963442e-01
        41         4       -1.123521e+00
        42         4        7.364915e-01
        43         4       -4.256455e-01
        44         4        5.862511e-01
        45         4        1.340418e+00
        46         4       -1.399220e+00
        47         4        6.580572e-01
        48         4        4.329740e-01
        49         4        2.752334e-02
        50         4       -1.050627e+00
        51         4        5.084006e-01
        52         4       -4.217340e-01
        53         4       -6.481201e-01
        54         4       -6.068428e-01
        55         4        1.210728e+00
        56         4        1.817843e+00
        57         4        2.871184e-01
        58         4        1.015917e+00
        59         4        8.269502e-01
        60         4        8.685787e-01
        61         4        6.764312e-01
        62         4        5.769492e-02
        63         4        3.274015e+00
        64         4        1.249016e+00
        65         4        4.904186e-01
        66         4       -1.020626e+00
        67         4        7.227938e-01
        68         4        4.266052e-01
        69         4       -5.006814e-01
        70         4       -6.029965e-01
        71         4       -2.474716e+00
        72         4        1.496609e+00
        73         4        8.545352e-01
        74         4        3.896767e-01
        75         4       -4.365566e-01
        76         4       -6.379160e-01
        77         4       -1.931726e+00
        78         4        1.104645e+00
        79         4        6.214822e-01
        80         4        2.561000e+00
        81         4       -9.816483e-01
        82         4        2.907200e-01
        83         4       -1.237728e-01
        84         4        1.000067e-01
        85         4       -6.907155e-01
        86         4        1.289057e+00
        87         4       -1.894175e+00
        88         4       -7.813753e-01
        89         4       -7.266341e-01
        90         4       -2.647844e-01
        91         4        5.448927e-01
        92         4       -1.297119e-01
        93         4       -1.216515e+00
        94         4        1.155696e+00
        95         4        3.645029e-01
        96         4        1.691784e-01
        97         4       -1.805232e+00
        98         4       -8.668986e-01
        99         4       -6.551816e-01
       100         4        5.742507e-01
         1         5        1.249895e-01
         2         5        1.581912e-01
         3         5       -1.535091e+00
         4         5       -6.323905e-01
         5         5        7.786251e-01
         6         5       -5.184923e-01
         7         5        8.267880e-01
         8         5        1.119710e+00
         9         5       -3.662659e-01
        10         5       -7.979319e-02
        11         5        5.536686e-01
        12         5        1.366537e-01
        13         5        1.277254e+00
        14         5        1.139300e+00
        15         5       -2.872121e-01
        16         5        4.885039e-01
        17         5        1.885844e-01
        18         5       -1.513943e+00
        19         5        1.407280e+00
        20         5       -2.049273e+00
        21         5        1.222361e+00
        22         5        3.324402e-02
        23         5        7.260770e-01
        24         5       -2.041364e-01
        25         5        8.767788e-01
        26         5       -6.890016e-01
        27         5        3.874038e-01
        28         5       -2.191050e-03
        29         5        8.684178e-01
        30         5       -1.330267e+00
        31         5        6.572215e-01
        32         5       -1.431152e+00
        33         5        8.497854e-01
        34         5       -4.956839e-01
        35         5        1.543296e-01
        36         5       -6.502948e-01
        37         5        2.454034e+00
        38         5       -2.217615e-01
        39         5       -3.574122e-01
        40         5       -1.119459e+00
        41         5        3.160811e-01
        42         5       -2.274130e+00
        43         5        8.261108e-01
        44         5        1.459733e+00
        45         5       -6.646996e-01
        46         5       -6.127752e-01
        47         5       -1.299225e-02
        48         5       -9.095819e-01
        49         5        7.709130e-01
        50         5       -1.451302e+00
        51         5        2.613792e-01
        52         5       -6.133141e-01
        53         5        1.834797e+00
        54         5        1.625465e+00
        55         5        2.285342e+00
        56         5       -8.712119e-01
        57         5       -9.707423e-01
        58         5        7.625595e-01
        59         5        1.349365e-01
        60         5       -4.739185e-01
        61         5       -1.080306e-01
        62         5        4.422721e-01
        63         5        5.208036e-01
        64         5        7.281903e-01
        65         5       -2.599537e-01
        66         5       -5.858595e-01
        67         5        3.855713e-01
        68         5        1.673453e+00
        69         5       -5.103074e-01
        70         5        1.703096e+00
        71         5       -6.050774e-01
        72         5        4.727587e-01
        73         5       -1.967988e-01
        74         5       -5.595463e-01
        75         5        1.733122e+00
        76         5       -3.155967e-01
        77         5       -1.936530e+00
        78         5        1.623796e+00
        79         5        1.115773e+00
        80         5        2.960246e-01
        81         5       -2.721613e-01
        82         5       -1.009525e+00
        83         5       -2.302344e-02
        84         5       -4.325202e-01
        85         5       -2.264914e+00
        86         5        4.435776e-02
        87         5       -1.338780e-01
        88         5       -9.907469e-01
        89         5       -1.128952e-01
        90         5        4.136838e-01
        91         5        1.361609e+00
        92         5       -7.477569e-01
        93         5        3.243736e-01
        94         5        8.938353e-02
        95         5       -2.742374e-01
        96         5        7.026906e-01
        97         5       -9.806401e-01
        98         5       -1.450325e+00
        99         5        1.188988e+00
       100         5       -2.366089e-01
;

param theta:=
    1        1.289442e+00
    2        1.195411e-01
    3        1.007824e+00
    4        8.432129e-01
    5       -8.488793e-01
;
param X_true:=
    1        4.673488e-02
    2       -1.245311e+00
    3        1.478592e+00
    4        9.740081e-01
    5       -4.880851e-01
    6        9.755832e-01
    7       -2.484923e+00
    8        1.275829e-01
    9        2.022851e+00
   10        9.601549e-01
   11       -2.507139e+00
   12        8.776598e-01
   13       -3.312870e-02
   14       -6.537324e-01
   15        3.314083e-01
   16       -4.599842e-01
   17       -6.749934e-02
   18        3.557138e+00
   19       -1.633189e+00
   20       -1.405422e+00
   21        3.842343e-02
   22       -9.073967e-02
   23       -3.277092e-01
   24       -2.123983e-01
   25       -6.593441e-01
   26       -1.416764e+00
   27       -3.479702e+00
   28       -6.584408e-02
   29       -1.098121e-01
   30        4.359360e+00
   31        2.492625e+00
   32        9.671769e-01
   33        3.559109e+00
   34       -3.295429e-01
   35        1.819172e-01
   36        1.451779e+00
   37       -1.761865e+00
   38       -2.329258e+00
   39       -5.646134e-01
   40       -7.405160e-01
   41       -9.362191e-01
   42       -1.635060e-01
   43       -3.745167e+00
   44       -3.472732e+00
   45       -7.164902e-01
   46       -1.067838e+00
   47        7.279499e-01
   48       -5.422512e-01
   49        4.689165e-01
   50       -2.005699e-01
   51        3.096049e+00
   52       -2.897174e-01
   53       -2.219990e+00
   54       -1.257656e+00
   55       -1.857194e+00
   56        1.834430e+00
   57        2.605510e+00
   58        1.033940e-01
   59        4.394366e-01
   60        3.020166e+00
   61        3.007745e+00
   62       -6.956035e-02
   63        1.981471e+00
   64        5.913278e-01
   65       -9.653680e-01
   66       -1.411832e+00
   67       -1.457208e+00
   68        1.700697e+00
   69        1.471331e+00
   70        7.114845e-01
   71        3.116709e+00
   72        1.330368e+00
   73        2.224811e+00
   74        7.652240e-01
   75        1.630035e-01
   76       -1.318120e+00
   77       -1.429549e+00
   78       -2.660147e+00
   79       -5.020132e-01
   80        2.019272e+00
   81       -2.245002e-01
   82        1.192838e+00
   83       -6.544271e-01
   84       -5.542347e-01
   85        3.996123e+00
   86        5.180925e-01
   87       -2.869395e+00
   88       -2.932737e+00
   89       -5.883023e-01
   90       -1.511418e+00
   91       -4.396322e+00
   92        1.478834e+00
   93       -9.964216e-01
   94        2.666906e-01
   95        1.523369e+00
   96       -3.251858e+00
   97       -1.702569e-01
   98       -1.880897e+00
   99       -5.768552e-01
  100        2.354704e+00
;
param X:=
    1        4.673488e-02
    2       -1.922321e+00
    3        8.032375e-01
    4        9.740081e-01
    5       -4.880851e-01
    6        9.755832e-01
    7       -2.484923e+00
    8        2.045359e-01
    9        2.022851e+00
   10        9.601549e-01
   11       -2.507139e+00
   12        1.001961e-01
   13       -3.312870e-02
   14       -6.537324e-01
   15        3.314083e-01
   16       -4.599842e-01
   17       -1.495674e+00
   18        3.557138e+00
   19       -1.633189e+00
   20       -1.405422e+00
   21        3.842343e-02
   22       -8.888989e-01
   23       -3.277092e-01
   24       -1.461054e+00
   25       -6.593441e-01
   26       -1.416764e+00
   27       -3.479702e+00
   28       -6.584408e-02
   29        3.126525e-01
   30        4.359360e+00
   31       -5.070590e-01
   32        9.671769e-01
   33        3.559109e+00
   34       -3.295429e-01
   35        1.819172e-01
   36        1.451779e+00
   37       -1.761865e+00
   38       -2.329258e+00
   39       -5.646134e-01
   40       -7.405160e-01
   41       -9.362191e-01
   42       -1.635060e-01
   43        4.840581e-01
   44       -3.472732e+00
   45       -7.164902e-01
   46       -1.067838e+00
   47        7.279499e-01
   48       -5.422512e-01
   49        4.689165e-01
   50       -2.005699e-01
   51        3.096049e+00
   52       -2.897174e-01
   53       -2.219990e+00
   54       -1.257656e+00
   55        4.094609e-01
   56        1.834430e+00
   57        2.605510e+00
   58        1.033940e-01
   59        4.394366e-01
   60        3.020166e+00
   61        3.007745e+00
   62       -1.049524e+00
   63        1.981471e+00
   64        5.913278e-01
   65       -9.653680e-01
   66        4.739516e-01
   67       -2.517445e-01
   68        1.700697e+00
   69        1.471331e+00
   70       -2.318520e-01
   71        3.116709e+00
   72        1.330368e+00
   73        2.224811e+00
   74        4.285623e-02
   75        1.630035e-01
   76       -1.318120e+00
   77       -1.429549e+00
   78       -6.373870e-01
   79       -5.020132e-01
   80        2.019272e+00
   81       -2.245002e-01
   82        1.192838e+00
   83       -6.544271e-01
   84       -5.542347e-01
   85        3.996123e+00
   86        5.180925e-01
   87       -2.869395e+00
   88       -2.932737e+00
   89       -5.883023e-01
   90       -1.511418e+00
   91       -4.396322e+00
   92        1.478834e+00
   93       -9.964216e-01
   94        1.762306e+00
   95        1.523369e+00
   96       -3.251858e+00
   97       -1.702569e-01
   98        1.093392e+00
   99        1.621025e-01
  100        2.354704e+00
;
param outliervec:=
    1    0
    2    1
    3    1
    4    0
    5    0
    6    0
    7    0
    8    1
    9    0
   10    0
   11    0
   12    1
   13    0
   14    0
   15    0
   16    0
   17    1
   18    0
   19    0
   20    0
   21    0
   22    1
   23    0
   24    1
   25    0
   26    0
   27    0
   28    0
   29    1
   30    0
   31    1
   32    0
   33    0
   34    0
   35    0
   36    0
   37    0
   38    0
   39    0
   40    0
   41    0
   42    0
   43    1
   44    0
   45    0
   46    0
   47    0
   48    0
   49    0
   50    0
   51    0
   52    0
   53    0
   54    0
   55    1
   56    0
   57    0
   58    0
   59    0
   60    0
   61    0
   62    1
   63    0
   64    0
   65    0
   66    1
   67    1
   68    0
   69    0
   70    1
   71    0
   72    0
   73    0
   74    1
   75    0
   76    0
   77    0
   78    1
   79    0
   80    0
   81    0
   82    0
   83    0
   84    0
   85    0
   86    0
   87    0
   88    0
   89    0
   90    0
   91    0
   92    0
   93    0
   94    1
   95    0
   96    0
   97    0
   98    1
   99    1
  100    0
;